c leafs=60, vars=15, seed=1, tickle=1, pretickle_path=1
p cnf 761 2059                                                                
e 16 17 18 19 20 21 22 23 24 25 26 27 28 29 30 31 32 33 34 35 36 37 38 39 40 41 42 43 44 45 46 47 48 49 50 51 52 53 54 55 56 57 58 59 60 61 62 63 64 65 66 67 68 69 70 71 72 73 74 75  0
a 1 2 3 4 5 6 7 8 9 10 11 12 13 14 15  0
e 76 77 78 79 80 81 82 83 84 85 86 87 88 89 90 91 92 93 94 95 96 97 98 99 100 101 102 103 104 105 106 107 108 109 110 111 112 113 114 115 116 117 118 119 120 121 122 123 124 125 126 127 128 129 130 131 132 133 134 135 136 137 138 139 140 141 142 143 144 145 146 147 148 149 150 151 152 153 154 155 156 157 158 159 160 161 162 163 164 165 166 167 168 169 170 171 172 173 174 175 176 177 178 179 180 181 182 183 184 185 186 187 188 189 190 191 192 193 194 195 196 197 198 199 200 201 202 203 204 205 206 207 208 209 210 211 212 213 214 215 216 217 218 219 220 221 222 223 224 225 226 227 228 229 230 231 232 233 234 235 236 237 238 239 240 241 242 243 244 245 246 247 248 249 250 251 252 253 254 255 256 257 258 259 260 261 262 263 264 265 266 267 268 269 270 271 272 273 274 275 276 277 278 279 280 281 282 283 284 285 286 287 288 289 290 291 292 293 294 295 296 297 298 299 300 301 302 303 304 305 306 307 308 309 310 311 312 313 314 315 316 317 318 319 320 321 322 323 324 325 326 327 328 329 330 331 332 333 334 335 336 337 338 339 340 341 342 343 344 345 346 347 348 349 350 351 352 353 354 355 356 357 358 359 360 361 362 363 364 365 366 367 368 369 370 371 372 373 374 375 376 377 378 379 380 381 382 383 384 385 386 387 388 389 390 391 392 393 394 395 396 397 398 399 400 401 402 403 404 405 406 407 408 409 410 411 412 413 414 415 416 417 418 419 420 421 422 423 424 425 426 427 428 429 430 431 432 433 434 435 436 437 438 439 440 441 442 443 444 445 446 447 448 449 450 451 452 453 454 455 456 457 458 459 460 461 462 463 464 465 466 467 468 469 470 471 472 473 474 475 476 477 478 479 480 481 482 483 484 485 486 487 488 489 490 491 492 493 494 495 496 497 498 499 500 501 502 503 504 505 506 507 508 509 510 511 512 513 514 515 516 517 518 519 520 521 522 523 524 525 526 527 528 529 530 531 532 533 534 535 536 537 538 539 540 541 542 543 544 545 546 547 548 549 550 551 552 553 554 555 556 557 558 559 560 561 562 563 564 565 566 567 568 569 570 571 572 573 574 575 576 577 578 579 580 581 582 583 584 585 586 587 588 589 590 591 592 593 594 595 596 597 598 599 600 601 602 603 604 605 606 607 608 609 610 611 612 613 614 615 616 617 618 619 620 621 622 623 624 625 626 627 628 629 630 631 632 633 634 635 636 637 638 639 640 641 642 643 644 645 646 647 648 649 650 651 652 653 654 655 656 657 658 659 660 661 662 663 664 665 666 667 668 669 670 671 672 673 674 675 676 677 678 679 680 681 682 683 684 685 686 687 688 689 690 691 692 693 694 695 696 697 698 699 700 701 702 703 704 705 706 707 708 709 710 711 712 713 714 715 716 717 718 719 720 721 722 723 724 725 726 727 728 729 730 731 732 733 734 735 736 737 738 739 740 741 742 743 744 745 746 747 748 749 750 751 752 753 754 755 756 757 758 759 760 761  0
761  0
76 28 1  0
-76 -28  0
-76 -1  0
77 -15 -28  0
-77 15  0
-77 28  0
78 -4 -27  0
-78 4  0
-78 27  0
79 27 -15  0
-79 -27  0
-79 15  0
-80 -29 -10  0
80 29  0
80 10  0
-81 8 29  0
81 -8  0
81 -29  0
-82 -12 30  0
82 12  0
82 -30  0
-83 -30 -9  0
83 30  0
83 9  0
-84 -23 11  0
84 23  0
84 -11  0
-85 9 23  0
85 -9  0
85 -23  0
-86 -24 2  0
86 24  0
86 -2  0
-87 -3 24  0
87 3  0
87 -24  0
-88 15 26  0
88 -15  0
88 -26  0
-89 -26 9  0
89 26  0
89 -9  0
-90 2 25  0
90 -2  0
90 -25  0
-91 -25 -6  0
91 25  0
91 6  0
-92 -20 -5  0
92 20  0
92 5  0
-93 15 20  0
93 -15  0
93 -20  0
-94 -22 -4  0
94 22  0
94 4  0
-95 15 22  0
95 -15  0
95 -22  0
-96 -21 -7  0
96 21  0
96 7  0
-97 8 21  0
97 -8  0
97 -21  0
-98 -5 17  0
98 5  0
98 -17  0
-99 -17 1  0
99 17  0
99 -1  0
-100 -16 -6  0
100 16  0
100 6  0
-101 14 16  0
101 -14  0
101 -16  0
102 18 10  0
-102 -18  0
-102 -10  0
103 9 -18  0
-103 -9  0
-103 18  0
104 13 -19  0
-104 -13  0
-104 19  0
105 19 5  0
-105 -19  0
-105 -5  0
106 -9 -34  0
-106 9  0
-106 34  0
107 34 -8  0
-107 -34  0
-107 8  0
108 -10 -33  0
-108 10  0
-108 33  0
109 33 -2  0
-109 -33  0
-109 2  0
110 32 10  0
-110 -32  0
-110 -10  0
111 -5 -32  0
-111 5  0
-111 32  0
112 31 14  0
-112 -31  0
-112 -14  0
113 -4 -31  0
-113 4  0
-113 31  0
-114 -37 6  0
114 37  0
114 -6  0
-115 -12 37  0
115 12  0
115 -37  0
116 36 4  0
-116 -36  0
-116 -4  0
117 -13 -36  0
-117 13  0
-117 36  0
118 35 -15  0
-118 -35  0
-118 15  0
119 6 -35  0
-119 -6  0
-119 35  0
-120 -4 40  0
120 4  0
120 -40  0
-121 -40 14  0
121 40  0
121 -14  0
-122 -5 41  0
122 5  0
122 -41  0
-123 -41 13  0
123 41  0
123 -13  0
124 1 -38  0
-124 -1  0
-124 38  0
125 38 -15  0
-125 -38  0
-125 15  0
126 39 -5  0
-126 -39  0
-126 5  0
127 -2 -39  0
-127 2  0
-127 39  0
128 3 -43  0
-128 -3  0
-128 43  0
129 43 -14  0
-129 -43  0
-129 14  0
130 42 10  0
-130 -42  0
-130 -10  0
131 -14 -42  0
-131 14  0
-131 42  0
-132 7 45  0
132 -7  0
132 -45  0
-133 -45 -1  0
133 45  0
133 1  0
-134 -14 44  0
134 14  0
134 -44  0
-135 -44 -5  0
135 44  0
135 5  0
-136 -67 -4  0
136 67  0
136 4  0
-137 -9 67  0
137 9  0
137 -67  0
-138 -2 66  0
138 2  0
138 -66  0
-139 -66 7  0
139 66  0
139 -7  0
-140 -8 65  0
140 8  0
140 -65  0
-141 -65 13  0
141 65  0
141 -13  0
-142 -14 64  0
142 14  0
142 -64  0
-143 -64 10  0
143 64  0
143 -10  0
-144 -62 -8  0
144 62  0
144 8  0
-145 -4 62  0
145 4  0
145 -62  0
-146 9 61  0
146 -9  0
146 -61  0
-147 -61 -5  0
147 61  0
147 5  0
148 63 6  0
-148 -63  0
-148 -6  0
149 2 -63  0
-149 -2  0
-149 63  0
-150 -74 -5  0
150 74  0
150 5  0
-151 -9 74  0
151 9  0
151 -74  0
-152 -75 -6  0
152 75  0
152 6  0
-153 12 75  0
153 -12  0
153 -75  0
-154 -7 72  0
154 7  0
154 -72  0
-155 -72 -3  0
155 72  0
155 3  0
-156 -73 -14  0
156 73  0
156 14  0
-157 12 73  0
157 -12  0
157 -73  0
-158 -71 -11  0
158 71  0
158 11  0
-159 -2 71  0
159 2  0
159 -71  0
-160 -70 12  0
160 70  0
160 -12  0
-161 -8 70  0
161 8  0
161 -70  0
162 69 1  0
-162 -69  0
-162 -1  0
163 13 -69  0
-163 -13  0
-163 69  0
164 68 3  0
-164 -68  0
-164 -3  0
165 -15 -68  0
-165 15  0
-165 68  0
166 -14 -56  0
-166 14  0
-166 56  0
167 56 -9  0
-167 -56  0
-167 9  0
168 -13 -57  0
-168 13  0
-168 57  0
169 57 -5  0
-169 -57  0
-169 5  0
-170 -54 6  0
170 54  0
170 -6  0
-171 7 54  0
171 -7  0
171 -54  0
-172 -55 -11  0
172 55  0
172 11  0
-173 -10 55  0
173 10  0
173 -55  0
-174 -2 59  0
174 2  0
174 -59  0
-175 -59 -1  0
175 59  0
175 1  0
-176 -5 58  0
176 5  0
176 -58  0
-177 -58 3  0
177 58  0
177 -3  0
178 7 -60  0
-178 -7  0
-178 60  0
179 60 9  0
-179 -60  0
-179 -9  0
180 47 6  0
-180 -47  0
-180 -6  0
181 -9 -47  0
-181 9  0
-181 47  0
182 -5 -46  0
-182 5  0
-182 46  0
183 46 -2  0
-183 -46  0
-183 2  0
184 48 1  0
-184 -48  0
-184 -1  0
185 14 -48  0
-185 -14  0
-185 48  0
186 1 -49  0
-186 -1  0
-186 49  0
187 49 -8  0
-187 -49  0
-187 8  0
188 -5 -53  0
-188 5  0
-188 53  0
189 53 4  0
-189 -53  0
-189 -4  0
190 52 11  0
-190 -52  0
-190 -11  0
191 10 -52  0
-191 -10  0
-191 52  0
192 6 -51  0
-192 -6  0
-192 51  0
193 51 1  0
-193 -51  0
-193 -1  0
194 -7 -50  0
-194 7  0
-194 50  0
195 50 -8  0
-195 -50  0
-195 8  0
-196 -5 8  0
196 5  0
196 -8  0
-197 -8 5  0
197 8  0
197 -5  0
198 13 -10  0
-198 -13  0
-198 10  0
199 10 -13  0
-199 -10  0
-199 13  0
200 -1 -14  0
-200 1  0
-200 14  0
201 14 1  0
-201 -14  0
-201 -1  0
202 13 10  0
-202 -13  0
-202 -10  0
203 -10 -13  0
-203 10  0
-203 13  0
-204 -11 3  0
204 11  0
204 -3  0
-205 -3 11  0
205 3  0
205 -11  0
-206 -7 -5  0
206 7  0
206 5  0
-207 5 7  0
207 -5  0
207 -7  0
-208 -1 2  0
208 1  0
208 -2  0
-209 -2 1  0
209 2  0
209 -1  0
210 13 -15  0
-210 -13  0
-210 15  0
211 15 -13  0
-211 -15  0
-211 13  0
212 9 -2  0
-212 -9  0
-212 2  0
213 2 -9  0
-213 -2  0
-213 9  0
214 14 -13  0
-214 -14  0
-214 13  0
215 13 -14  0
-215 -13  0
-215 14  0
216 2 1  0
-216 -2  0
-216 -1  0
217 -1 -2  0
-217 1  0
-217 2  0
218 9 2  0
-218 -9  0
-218 -2  0
219 -2 -9  0
-219 2  0
-219 9  0
-220 13 14  0
220 -13  0
220 -14  0
-221 -14 -13  0
221 14  0
221 13  0
-222 -4 11  0
222 4  0
222 -11  0
-223 -11 4  0
223 11  0
223 -4  0
-224 1 7  0
224 -1  0
224 -7  0
-225 -7 -1  0
225 7  0
225 1  0
-226 -7 1  0
226 7  0
226 -1  0
-227 -1 7  0
227 1  0
227 -7  0
228 -2 -12  0
-228 2  0
-228 12  0
229 12 2  0
-229 -12  0
-229 -2  0
-230 -11 -4  0
230 11  0
230 4  0
-231 4 11  0
231 -4  0
231 -11  0
232 3 -14  0
-232 -3  0
-232 14  0
233 14 -3  0
-233 -14  0
-233 3  0
-234 -7 4  0
234 7  0
234 -4  0
-235 -4 7  0
235 4  0
235 -7  0
-236 76 77  0
236 -76  0
236 -77  0
-237 78 79  0
237 -78  0
237 -79  0
238 -80 -81  0
-238 80  0
-238 81  0
239 -82 -83  0
-239 82  0
-239 83  0
240 -84 -85  0
-240 84  0
-240 85  0
241 -86 -87  0
-241 86  0
-241 87  0
242 -88 -89  0
-242 88  0
-242 89  0
243 -90 -91  0
-243 90  0
-243 91  0
244 -92 -93  0
-244 92  0
-244 93  0
245 -94 -95  0
-245 94  0
-245 95  0
246 -96 -97  0
-246 96  0
-246 97  0
247 -98 -99  0
-247 98  0
-247 99  0
248 -100 -101  0
-248 100  0
-248 101  0
-249 102 103  0
249 -102  0
249 -103  0
-250 104 105  0
250 -104  0
250 -105  0
-251 106 107  0
251 -106  0
251 -107  0
-252 108 109  0
252 -108  0
252 -109  0
-253 110 111  0
253 -110  0
253 -111  0
-254 112 113  0
254 -112  0
254 -113  0
255 -114 -115  0
-255 114  0
-255 115  0
-256 116 117  0
256 -116  0
256 -117  0
-257 118 119  0
257 -118  0
257 -119  0
258 -120 -121  0
-258 120  0
-258 121  0
259 -122 -123  0
-259 122  0
-259 123  0
-260 124 125  0
260 -124  0
260 -125  0
-261 126 127  0
261 -126  0
261 -127  0
-262 128 129  0
262 -128  0
262 -129  0
-263 130 131  0
263 -130  0
263 -131  0
264 -132 -133  0
-264 132  0
-264 133  0
265 -134 -135  0
-265 134  0
-265 135  0
266 -136 -137  0
-266 136  0
-266 137  0
267 -138 -139  0
-267 138  0
-267 139  0
268 -140 -141  0
-268 140  0
-268 141  0
269 -142 -143  0
-269 142  0
-269 143  0
270 -144 -145  0
-270 144  0
-270 145  0
271 -146 -147  0
-271 146  0
-271 147  0
-272 148 149  0
272 -148  0
272 -149  0
273 -150 -151  0
-273 150  0
-273 151  0
274 -152 -153  0
-274 152  0
-274 153  0
275 -154 -155  0
-275 154  0
-275 155  0
276 -156 -157  0
-276 156  0
-276 157  0
277 -158 -159  0
-277 158  0
-277 159  0
278 -160 -161  0
-278 160  0
-278 161  0
-279 162 163  0
279 -162  0
279 -163  0
-280 164 165  0
280 -164  0
280 -165  0
-281 166 167  0
281 -166  0
281 -167  0
-282 168 169  0
282 -168  0
282 -169  0
283 -170 -171  0
-283 170  0
-283 171  0
284 -172 -173  0
-284 172  0
-284 173  0
285 -174 -175  0
-285 174  0
-285 175  0
286 -176 -177  0
-286 176  0
-286 177  0
-287 178 179  0
287 -178  0
287 -179  0
-288 180 181  0
288 -180  0
288 -181  0
-289 182 183  0
289 -182  0
289 -183  0
-290 184 185  0
290 -184  0
290 -185  0
-291 186 187  0
291 -186  0
291 -187  0
-292 188 189  0
292 -188  0
292 -189  0
-293 190 191  0
293 -190  0
293 -191  0
-294 192 193  0
294 -192  0
294 -193  0
-295 194 195  0
295 -194  0
295 -195  0
296 -196 -197  0
-296 196  0
-296 197  0
-297 198 199  0
297 -198  0
297 -199  0
-298 200 201  0
298 -200  0
298 -201  0
-299 202 203  0
299 -202  0
299 -203  0
300 -204 -205  0
-300 204  0
-300 205  0
301 -206 -207  0
-301 206  0
-301 207  0
302 -208 -209  0
-302 208  0
-302 209  0
-303 210 211  0
303 -210  0
303 -211  0
-304 212 213  0
304 -212  0
304 -213  0
-305 214 215  0
305 -214  0
305 -215  0
-306 216 217  0
306 -216  0
306 -217  0
-307 218 219  0
307 -218  0
307 -219  0
308 -220 -221  0
-308 220  0
-308 221  0
309 -222 -223  0
-309 222  0
-309 223  0
310 -224 -225  0
-310 224  0
-310 225  0
311 -226 -227  0
-311 226  0
-311 227  0
-312 228 229  0
312 -228  0
312 -229  0
313 -230 -231  0
-313 230  0
-313 231  0
-314 232 233  0
314 -232  0
314 -233  0
315 -234 -235  0
-315 234  0
-315 235  0
-316 236 237  0
316 -236  0
316 -237  0
-317 -237 -236  0
317 237  0
317 236  0
-318 238 239  0
318 -238  0
318 -239  0
-319 -239 -238  0
319 239  0
319 238  0
-320 240 241  0
320 -240  0
320 -241  0
-321 -241 -240  0
321 241  0
321 240  0
-322 242 243  0
322 -242  0
322 -243  0
-323 -243 -242  0
323 243  0
323 242  0
-324 245 246  0
324 -245  0
324 -246  0
-325 -246 -245  0
325 246  0
325 245  0
-326 247 248  0
326 -247  0
326 -248  0
-327 -248 -247  0
327 248  0
327 247  0
-328 249 250  0
328 -249  0
328 -250  0
-329 -249 -250  0
329 249  0
329 250  0
-330 251 252  0
330 -251  0
330 -252  0
-331 -252 -251  0
331 252  0
331 251  0
-332 253 254  0
332 -253  0
332 -254  0
-333 -254 -253  0
333 254  0
333 253  0
-334 256 257  0
334 -256  0
334 -257  0
-335 -257 -256  0
335 257  0
335 256  0
-336 258 259  0
336 -258  0
336 -259  0
-337 -259 -258  0
337 259  0
337 258  0
-338 260 261  0
338 -260  0
338 -261  0
-339 -260 -261  0
339 260  0
339 261  0
-340 262 263  0
340 -262  0
340 -263  0
-341 -263 -262  0
341 263  0
341 262  0
-342 264 265  0
342 -264  0
342 -265  0
-343 -264 -265  0
343 264  0
343 265  0
344 -266 -267  0
-344 266  0
-344 267  0
345 267 266  0
-345 -267  0
-345 -266  0
346 -268 -269  0
-346 268  0
-346 269  0
347 269 268  0
-347 -269  0
-347 -268  0
348 -270 -271  0
-348 270  0
-348 271  0
349 271 270  0
-349 -271  0
-349 -270  0
-350 273 274  0
350 -273  0
350 -274  0
-351 -274 -273  0
351 274  0
351 273  0
-352 275 276  0
352 -275  0
352 -276  0
-353 -276 -275  0
353 276  0
353 275  0
-354 277 278  0
354 -277  0
354 -278  0
-355 -277 -278  0
355 277  0
355 278  0
-356 279 280  0
356 -279  0
356 -280  0
-357 -279 -280  0
357 279  0
357 280  0
358 -281 -282  0
-358 281  0
-358 282  0
359 282 281  0
-359 -282  0
-359 -281  0
360 -283 -284  0
-360 283  0
-360 284  0
361 284 283  0
-361 -284  0
-361 -283  0
362 -285 -286  0
-362 285  0
-362 286  0
363 285 286  0
-363 -285  0
-363 -286  0
364 -288 -289  0
-364 288  0
-364 289  0
365 288 289  0
-365 -288  0
-365 -289  0
366 -290 -291  0
-366 290  0
-366 291  0
367 290 291  0
-367 -290  0
-367 -291  0
368 -292 -293  0
-368 292  0
-368 293  0
369 293 292  0
-369 -293  0
-369 -292  0
370 -294 -295  0
-370 294  0
-370 295  0
371 294 295  0
-371 -294  0
-371 -295  0
372 1 -297  0
-372 -1  0
-372 297  0
373 -1 -297  0
-373 1  0
-373 297  0
-374 298 299  0
374 -298  0
374 -299  0
-375 -3 301  0
375 3  0
375 -301  0
-376 3 301  0
376 -3  0
376 -301  0
-377 -12 303  0
377 12  0
377 -303  0
-378 5 304  0
378 -5  0
378 -304  0
-379 -5 304  0
379 5  0
379 -304  0
380 -305 -306  0
-380 305  0
-380 306  0
381 5 -307  0
-381 -5  0
-381 307  0
382 -5 -307  0
-382 5  0
-382 307  0
-383 -11 308  0
383 11  0
383 -308  0
-384 11 308  0
384 -11  0
384 -308  0
385 -309 -310  0
-385 309  0
-385 310  0
-386 4 311  0
386 -4  0
386 -311  0
-387 -4 311  0
387 4  0
387 -311  0
388 -13 -312  0
-388 13  0
-388 312  0
389 13 -312  0
-389 -13  0
-389 312  0
390 -4 -310  0
-390 4  0
-390 310  0
391 4 -310  0
-391 -4  0
-391 310  0
-392 311 313  0
392 -311  0
392 -313  0
-393 -13 315  0
393 13  0
393 -315  0
-394 13 315  0
394 -13  0
394 -315  0
395 -308 -302  0
-395 308  0
-395 302  0
396 -316 -317  0
-396 316  0
-396 317  0
397 -318 -319  0
-397 318  0
-397 319  0
398 -320 -321  0
-398 320  0
-398 321  0
399 -322 -323  0
-399 322  0
-399 323  0
400 -324 -325  0
-400 324  0
-400 325  0
401 -326 -327  0
-401 326  0
-401 327  0
402 -328 -329  0
-402 328  0
-402 329  0
403 -330 -331  0
-403 330  0
-403 331  0
404 -332 -333  0
-404 332  0
-404 333  0
405 -334 -335  0
-405 334  0
-405 335  0
406 -336 -337  0
-406 336  0
-406 337  0
407 -338 -339  0
-407 338  0
-407 339  0
408 -340 -341  0
-408 340  0
-408 341  0
409 -342 -343  0
-409 342  0
-409 343  0
-410 344 345  0
410 -344  0
410 -345  0
-411 346 347  0
411 -346  0
411 -347  0
-412 348 349  0
412 -348  0
412 -349  0
413 -350 -351  0
-413 350  0
-413 351  0
414 -352 -353  0
-414 352  0
-414 353  0
415 -354 -355  0
-415 354  0
-415 355  0
416 -356 -357  0
-416 356  0
-416 357  0
-417 358 359  0
417 -358  0
417 -359  0
-418 360 361  0
418 -360  0
418 -361  0
-419 362 363  0
419 -362  0
419 -363  0
-420 364 365  0
420 -364  0
420 -365  0
-421 366 367  0
421 -366  0
421 -367  0
-422 368 369  0
422 -368  0
422 -369  0
-423 370 371  0
423 -370  0
423 -371  0
424 -14 -372  0
-424 14  0
-424 372  0
425 14 -373  0
-425 -14  0
-425 373  0
426 8 -374  0
-426 -8  0
-426 374  0
427 -8 -374  0
-427 8  0
-427 374  0
-428 10 375  0
428 -10  0
428 -375  0
-429 -10 376  0
429 10  0
429 -376  0
430 -14 -378  0
-430 14  0
-430 378  0
431 14 -379  0
-431 -14  0
-431 379  0
432 7 -380  0
-432 -7  0
-432 380  0
433 -7 380  0
-433 7  0
-433 -380  0
-434 -3 -380  0
434 3  0
434 380  0
-435 3 -380  0
435 -3  0
435 380  0
436 -14 -381  0
-436 14  0
-436 381  0
437 14 -382  0
-437 -14  0
-437 382  0
-438 6 383  0
438 -6  0
438 -383  0
-439 -6 384  0
439 6  0
439 -384  0
-440 -14 385  0
440 14  0
440 -385  0
-441 11 386  0
441 -11  0
441 -386  0
-442 -11 387  0
442 11  0
442 -387  0
-443 14 385  0
443 -14  0
443 -385  0
444 -15 -388  0
-444 15  0
-444 388  0
445 15 -389  0
-445 -15  0
-445 389  0
-446 -11 390  0
446 11  0
446 -390  0
-447 11 391  0
447 -11  0
447 -391  0
-448 14 392  0
448 -14  0
448 -392  0
-449 -14 392  0
449 14  0
449 -392  0
-450 -10 393  0
450 10  0
450 -393  0
-451 10 394  0
451 -10  0
451 -394  0
-452 -3 395  0
452 3  0
452 -395  0
-453 3 395  0
453 -3  0
453 -395  0
454 -396 -397  0
-454 396  0
-454 397  0
455 -398 -399  0
-455 398  0
-455 399  0
456 -244 -400  0
-456 244  0
-456 400  0
457 -401 -402  0
-457 401  0
-457 402  0
-458 403 404  0
458 -403  0
458 -404  0
-459 255 405  0
459 -255  0
459 -405  0
460 -406 -407  0
-460 406  0
-460 407  0
461 -408 -409  0
-461 408  0
-461 409  0
462 -410 -411  0
-462 410  0
-462 411  0
-463 412 272  0
463 -412  0
463 -272  0
-464 413 414  0
464 -413  0
464 -414  0
465 -415 -416  0
-465 415  0
-465 416  0
466 -417 -418  0
-466 417  0
-466 418  0
-467 419 287  0
467 -419  0
467 -287  0
-468 420 421  0
468 -420  0
468 -421  0
469 -422 -423  0
-469 422  0
-469 423  0
-470 424 425  0
470 -424  0
470 -425  0
471 -428 -429  0
-471 428  0
-471 429  0
-472 430 431  0
472 -430  0
472 -431  0
-473 432 433  0
473 -432  0
473 -433  0
-474 436 437  0
474 -436  0
474 -437  0
475 -438 -439  0
-475 438  0
-475 439  0
476 -441 -442  0
-476 441  0
-476 442  0
-477 444 445  0
477 -444  0
477 -445  0
478 -446 -447  0
-478 446  0
-478 447  0
479 -450 -451  0
-479 450  0
-479 451  0
480 -454 -455  0
-480 454  0
-480 455  0
481 455 454  0
-481 -455  0
-481 -454  0
482 -456 -457  0
-482 456  0
-482 457  0
483 457 456  0
-483 -457  0
-483 -456  0
484 -458 -459  0
-484 458  0
-484 459  0
485 458 459  0
-485 -458  0
-485 -459  0
486 -460 -461  0
-486 460  0
-486 461  0
487 461 460  0
-487 -461  0
-487 -460  0
-488 462 463  0
488 -462  0
488 -463  0
-489 -463 -462  0
489 463  0
489 462  0
-490 464 465  0
490 -464  0
490 -465  0
-491 -464 -465  0
491 464  0
491 465  0
-492 466 467  0
492 -466  0
492 -467  0
-493 -466 -467  0
493 466  0
493 467  0
-494 468 469  0
494 -468  0
494 -469  0
-495 -469 -468  0
495 469  0
495 468  0
496 -5 -470  0
-496 5  0
-496 470  0
497 -8 -470  0
-497 8  0
-497 470  0
498 8 -470  0
-498 -8  0
-498 470  0
-499 377 472  0
499 -377  0
499 -472  0
-500 -377 -472  0
500 377  0
500 472  0
-501 5 473  0
501 -5  0
501 -473  0
-502 -5 -473  0
502 5  0
502 473  0
-503 377 474  0
503 -377  0
503 -474  0
-504 -474 -377  0
504 474  0
504 377  0
-505 14 476  0
505 -14  0
505 -476  0
-506 -14 476  0
506 14  0
506 -476  0
-507 476 -307  0
507 -476  0
507 307  0
-508 -307 478  0
508 307  0
508 -478  0
-509 -14 478  0
509 14  0
509 -478  0
-510 14 478  0
510 -14  0
510 -478  0
-511 -5 473  0
511 5  0
511 -473  0
-512 5 -473  0
512 -5  0
512 473  0
-513 480 481  0
513 -480  0
513 -481  0
-514 482 483  0
514 -482  0
514 -483  0
-515 484 485  0
515 -484  0
515 -485  0
-516 486 487  0
516 -486  0
516 -487  0
517 -488 -489  0
-517 488  0
-517 489  0
518 -490 -491  0
-518 490  0
-518 491  0
519 -492 -493  0
-519 492  0
-519 493  0
520 -494 -495  0
-520 494  0
-520 495  0
-521 497 426  0
521 -497  0
521 -426  0
-522 427 498  0
522 -427  0
522 -498  0
523 -499 -500  0
-523 499  0
-523 500  0
524 -501 -502  0
-524 501  0
-524 502  0
525 -503 -504  0
-525 503  0
-525 504  0
526 -440 -505  0
-526 440  0
-526 505  0
527 -506 -443  0
-527 506  0
-527 443  0
528 -509 -448  0
-528 509  0
-528 448  0
529 -449 -510  0
-529 449  0
-529 510  0
530 -511 -512  0
-530 511  0
-530 512  0
531 -513 -514  0
-531 513  0
-531 514  0
-532 515 516  0
532 -515  0
532 -516  0
533 -517 -518  0
-533 517  0
-533 518  0
-534 519 520  0
534 -519  0
534 -520  0
535 4 -521  0
-535 -4  0
-535 521  0
536 -4 -522  0
-536 4  0
-536 522  0
-537 302 523  0
537 -302  0
537 -523  0
538 13 -523  0
-538 -13  0
-538 523  0
539 -13 -523  0
-539 13  0
-539 523  0
-540 3 524  0
540 -3  0
540 -524  0
-541 -3 524  0
541 3  0
541 -524  0
-542 -8 526  0
542 8  0
542 -526  0
-543 8 527  0
543 -8  0
543 -527  0
-544 8 528  0
544 -8  0
544 -528  0
-545 -8 529  0
545 8  0
545 -529  0
-546 13 525  0
546 -13  0
546 -525  0
-547 -13 525  0
547 13  0
547 -525  0
-548 302 525  0
548 -302  0
548 -525  0
-549 3 530  0
549 -3  0
549 -530  0
-550 -3 530  0
550 3  0
550 -530  0
551 -531 -532  0
-551 531  0
-551 532  0
552 531 532  0
-552 -531  0
-552 -532  0
553 -533 -534  0
-553 533  0
-553 534  0
554 533 534  0
-554 -533  0
-554 -534  0
-555 535 536  0
555 -535  0
555 -536  0
-556 14 538  0
556 -14  0
556 -538  0
-557 -14 539  0
557 14  0
557 -539  0
-558 14 539  0
558 -14  0
558 -539  0
-559 -14 538  0
559 14  0
559 -538  0
560 -540 -434  0
-560 540  0
-560 434  0
561 -435 -541  0
-561 435  0
-561 541  0
562 -542 -543  0
-562 542  0
-562 543  0
563 -544 -545  0
-563 544  0
-563 545  0
-564 -14 546  0
564 14  0
564 -546  0
-565 14 547  0
565 -14  0
565 -547  0
-566 -14 547  0
566 14  0
566 -547  0
-567 14 546  0
567 -14  0
567 -546  0
568 -452 -549  0
-568 452  0
-568 549  0
569 -453 -550  0
-569 453  0
-569 550  0
-570 551 552  0
570 -551  0
570 -552  0
-571 553 554  0
571 -553  0
571 -554  0
572 5 -555  0
-572 -5  0
-572 555  0
573 -556 -557  0
-573 556  0
-573 557  0
574 -558 -559  0
-574 558  0
-574 559  0
-575 -10 560  0
575 10  0
575 -560  0
-576 10 561  0
576 -10  0
576 -561  0
-577 307 562  0
577 -307  0
577 -562  0
-578 307 563  0
578 -307  0
578 -563  0
579 -564 -565  0
-579 564  0
-579 565  0
580 -566 -567  0
-580 566  0
-580 567  0
-581 -10 568  0
581 10  0
581 -568  0
-582 10 569  0
582 -10  0
582 -569  0
-583 570 571  0
583 -570  0
583 -571  0
-584 496 572  0
584 -496  0
584 -572  0
-585 573 -302  0
585 -573  0
585 302  0
586 -302 -574  0
-586 302  0
-586 574  0
587 -575 -576  0
-587 575  0
-587 576  0
588 -577 -507  0
-588 577  0
-588 507  0
589 -508 -578  0
-589 508  0
-589 578  0
-590 579 -306  0
590 -579  0
590 306  0
-591 580 -302  0
591 -580  0
591 302  0
592 -581 -582  0
-592 581  0
-592 582  0
-593 -6 584  0
593 6  0
593 -584  0
-594 6 584  0
594 -6  0
594 -584  0
595 -584 300  0
-595 584  0
-595 -300  0
596 -537 -585  0
-596 537  0
-596 585  0
-597 -471 586  0
597 471  0
597 -586  0
-598 587 525  0
598 -587  0
598 -525  0
-599 590 -471  0
599 -590  0
599 471  0
600 -591 -548  0
-600 591  0
-600 548  0
601 -523 -592  0
-601 523  0
-601 592  0
602 15 -593  0
-602 -15  0
-602 593  0
603 -15 -594  0
-603 15  0
-603 594  0
604 15 -594  0
-604 -15  0
-604 594  0
605 -15 -593  0
-605 15  0
-605 593  0
-606 471 596  0
606 -471  0
606 -596  0
-607 471 600  0
607 -471  0
607 -600  0
-608 602 603  0
608 -602  0
608 -603  0
-609 604 605  0
609 -604  0
609 -605  0
610 -606 -597  0
-610 606  0
-610 597  0
611 -599 -607  0
-611 599  0
-611 607  0
612 -608 -300  0
-612 608  0
-612 300  0
-613 -3 609  0
613 3  0
613 -609  0
-614 3 609  0
614 -3  0
614 -609  0
-615 612 595  0
615 -612  0
615 -595  0
616 -11 -613  0
-616 11  0
-616 613  0
617 11 -614  0
-617 -11  0
-617 614  0
618 4 -615  0
-618 -4  0
-618 615  0
619 10 -615  0
-619 -10  0
-619 615  0
-620 616 617  0
620 -616  0
620 -617  0
621 -10 -615  0
-621 10  0
-621 615  0
622 -4 -615  0
-622 4  0
-622 615  0
623 -10 -620  0
-623 10  0
-623 620  0
624 10 -620  0
-624 -10  0
-624 620  0
-625 619 623  0
625 -619  0
625 -623  0
-626 621 624  0
626 -621  0
626 -624  0
627 12 -625  0
-627 -12  0
-627 625  0
628 -12 -626  0
-628 12  0
-628 626  0
-629 627 628  0
629 -627  0
629 -628  0
630 -4 -629  0
-630 4  0
-630 629  0
631 4 -629  0
-631 -4  0
-631 629  0
-632 618 630  0
632 -618  0
632 -630  0
-633 622 631  0
633 -622  0
633 -631  0
634 -1 -632  0
-634 1  0
-634 632  0
635 1 -633  0
-635 -1  0
-635 633  0
-636 634 635  0
636 -634  0
636 -635  0
-637 636 610  0
637 -636  0
637 -610  0
-638 -636 598  0
638 636  0
638 -598  0
-639 636 611  0
639 -636  0
639 -611  0
-640 -636 601  0
640 636  0
640 -601  0
641 -637 -638  0
-641 637  0
-641 638  0
642 -639 -640  0
-642 639  0
-642 640  0
643 -2 -641  0
-643 2  0
-643 641  0
644 2 -641  0
-644 -2  0
-644 641  0
-645 7 641  0
645 -7  0
645 -641  0
-646 -588 641  0
646 588  0
646 -641  0
-647 2 642  0
647 -2  0
647 -642  0
-648 -2 642  0
648 2  0
648 -642  0
-649 7 642  0
649 -7  0
649 -642  0
-650 -588 642  0
650 588  0
650 -642  0
-651 -3 643  0
651 3  0
651 -643  0
-652 3 644  0
652 -3  0
652 -644  0
-653 3 643  0
653 -3  0
653 -643  0
-654 -3 644  0
654 3  0
654 -644  0
-655 3 647  0
655 -3  0
655 -647  0
-656 -3 648  0
656 3  0
656 -648  0
-657 3 648  0
657 -3  0
657 -648  0
-658 -3 647  0
658 3  0
658 -647  0
659 -651 -652  0
-659 651  0
-659 652  0
660 -653 -654  0
-660 653  0
-660 654  0
661 -655 -656  0
-661 655  0
-661 656  0
662 -657 -658  0
-662 657  0
-662 658  0
663 -7 -659  0
-663 7  0
-663 659  0
-664 -7 660  0
664 7  0
664 -660  0
-665 -7 661  0
665 7  0
665 -661  0
-666 -7 662  0
666 7  0
666 -662  0
-667 663 475  0
667 -663  0
667 -475  0
668 -664 -645  0
-668 664  0
-668 645  0
-669 663 -475  0
669 -663  0
669 475  0
-670 -475 665  0
670 475  0
670 -665  0
671 -649 -666  0
-671 649  0
-671 666  0
-672 475 665  0
672 -475  0
672 -665  0
-673 668 -475  0
673 -668  0
673 475  0
-674 668 475  0
674 -668  0
674 -475  0
-675 475 671  0
675 -475  0
675 -671  0
-676 -475 671  0
676 475  0
676 -671  0
677 -667 -673  0
-677 667  0
-677 673  0
678 -669 -674  0
-678 669  0
-678 674  0
679 -670 -675  0
-679 670  0
-679 675  0
680 -676 -672  0
-680 676  0
-680 672  0
-681 677 588  0
681 -677  0
681 -588  0
682 -678 -589  0
-682 678  0
-682 589  0
-683 679 588  0
683 -679  0
683 -588  0
-684 588 680  0
684 -588  0
684 -680  0
685 -681 -646  0
-685 681  0
-685 646  0
-686 -6 682  0
686 6  0
686 -682  0
-687 6 682  0
687 -6  0
687 -682  0
-688 682 -314  0
688 -682  0
688 314  0
-689 683 -314  0
689 -683  0
689 314  0
-690 6 683  0
690 -6  0
690 -683  0
691 -684 -650  0
-691 684  0
-691 650  0
-692 -6 683  0
692 6  0
692 -683  0
-693 296 685  0
693 -296  0
693 -685  0
-694 6 685  0
694 -6  0
694 -685  0
-695 -6 685  0
695 6  0
695 -685  0
-696 -314 685  0
696 314  0
696 -685  0
-697 2 685  0
697 -2  0
697 -685  0
-698 -2 685  0
698 2  0
698 -685  0
-699 -6 691  0
699 6  0
699 -691  0
-700 6 691  0
700 -6  0
700 -691  0
-701 691 -314  0
701 -691  0
701 314  0
-702 -2 691  0
702 2  0
702 -691  0
-703 2 691  0
703 -2  0
703 -691  0
-704 296 691  0
704 -296  0
704 -691  0
705 -694 -686  0
-705 694  0
-705 686  0
706 -695 -687  0
-706 695  0
-706 687  0
707 -690 -699  0
-707 690  0
-707 699  0
708 -692 -700  0
-708 692  0
-708 700  0
-709 9 705  0
709 -9  0
709 -705  0
-710 -9 706  0
710 9  0
710 -706  0
-711 -9 705  0
711 9  0
711 -705  0
-712 9 706  0
712 -9  0
712 -706  0
-713 -9 707  0
713 9  0
713 -707  0
-714 9 708  0
714 -9  0
714 -708  0
-715 -9 708  0
715 9  0
715 -708  0
-716 9 707  0
716 -9  0
716 -707  0
717 -709 -710  0
-717 709  0
-717 710  0
718 -711 -712  0
-718 711  0
-718 712  0
719 -713 -714  0
-719 713  0
-719 714  0
720 -715 -716  0
-720 715  0
-720 716  0
-721 717 314  0
721 -717  0
721 -314  0
-722 314 718  0
722 -314  0
722 -718  0
-723 719 314  0
723 -719  0
723 -314  0
-724 720 314  0
724 -720  0
724 -314  0
725 -721 -688  0
-725 721  0
-725 688  0
726 -722 -696  0
-726 722  0
-726 696  0
727 -689 -723  0
-727 689  0
-727 723  0
728 -701 -724  0
-728 701  0
-728 724  0
-729 477 725  0
729 -477  0
729 -725  0
-730 726 -477  0
730 -726  0
730 477  0
-731 477 727  0
731 -477  0
731 -727  0
-732 728 -477  0
732 -728  0
732 477  0
733 -729 -730  0
-733 729  0
-733 730  0
734 -731 -732  0
-734 731  0
-734 732  0
-735 -2 733  0
735 2  0
735 -733  0
-736 733 296  0
736 -733  0
736 -296  0
-737 2 733  0
737 -2  0
737 -733  0
-738 734 296  0
738 -734  0
738 -296  0
-739 2 734  0
739 -2  0
739 -734  0
-740 -2 734  0
740 2  0
740 -734  0
741 -735 -697  0
-741 735  0
-741 697  0
742 -698 -737  0
-742 698  0
-742 737  0
743 -739 -702  0
-743 739  0
-743 702  0
744 -740 -703  0
-744 740  0
-744 703  0
-745 -296 741  0
745 296  0
745 -741  0
-746 742 -296  0
746 -742  0
746 296  0
-747 -296 743  0
747 296  0
747 -743  0
-748 -296 744  0
748 296  0
748 -744  0
749 -693 -745  0
-749 693  0
-749 745  0
750 -736 -746  0
-750 736  0
-750 746  0
751 -738 -747  0
-751 738  0
-751 747  0
752 -748 -704  0
-752 748  0
-752 704  0
-753 749 479  0
753 -749  0
753 -479  0
-754 -479 750  0
754 479  0
754 -750  0
-755 751 -479  0
755 -751  0
755 479  0
-756 479 752  0
756 -479  0
756 -752  0
757 -753 -754  0
-757 753  0
-757 754  0
758 -755 -756  0
-758 755  0
-758 756  0
-759 583 757  0
759 -583  0
759 -757  0
-760 -583 758  0
760 583  0
760 -758  0
761 -759 -760  0
-761 759  0
-761 760  0
